maximize
OBJ:100x0 + 100x1 + 100x2 + 100x3 + 100x4 + 100x5 + 100x6 + 100x7 + 100x8 + 100x9 + 100x10 + 100x11 + 100x12 + 100x13 + 100x14 + 100x15 + 100x16 + 100x17 + 100x18 + 100x19 + 100x20 + 100x21 + 100x22 + 100x23 + 100x24 + 100x25 + 100x26 + 100x27 + 100x28 + 100x29 + 100x30 + 100x31 + 100x32 + 100x33 + 100x34 + 100x35 + 100x36 + 100x37 + 100x38 + 100x39 + 100x40 + 100x41 + 100x42 + 100x43 + 100x44 + 100x45 + 100x46 + 100x47 + 100x48 + 100x49 + 100x50 + 100x51 + 100x52 + 100x53 + 100x54 + 100x55 + 100x56 + 100x57 + 100x58 + 100x59 + 100x60 + 100x61 + 100x62 + 100x63 + 100x64 - y36_53 - y47_53 - y15_30 - y26_30 - y7_26 - y15_39 - y26_39 - y28_58 - y48_54 - y21_37 - y21_55 - y41_42 - y2_32 - y10_45 - y44_47 - y2_41 - y25_43 - y10_54 - y2_50 - y3_15 - y25_52 - y22_28 - y51_64 - y25_61 - y32_60 - y43_60 - y3_33 - y14_42 - y15_16 - y7_12 - y36_48 - y47_48 - y17_44 - y28_53 - y9_49 - y17_62 - y9_58 - y48_49 - y25_38 - y2_45 - y3_10 - y25_47 - y3_19 - y32_55 - y13_51 - y14_28 - y43_64 - y17_48 - y28_57 - y6_38 - y21_36 - y21_45 - y2_22 - y10_35 - y25_33 - y2_40 - y1_53 - y13_55 - y16_60 - y5_41 - y36_56 - y9_39 - y5_50 - y28_52 - y29_44 - y2_8 - y2_17 - y54_64 - y23_58 - y32_36 - y13_32 - y24_32 - y13_41 - y24_41 - y3_18 - y14_18 - y43_54 - y1_48 - y13_50 - y32_63 - y35_59 - y17_29 - y28_29 - y36_42 - y9_25 - y47_51 - y17_47 - y9_43 - y5_54 - y29_30 - y39_43 - y31_48 - y10_25 - y39_61 - y23_62 - y3_4 - y4_58 - y1_34 - y13_45 - y35_45 - y13_54 - y1_61 - y24_63 - y9_11 - y35_63 - y17_24 - y46_60 - y57_60 - y5_49 - y5_58 - y58_61 - y27_64 - y30_60 - y42_62 - y0_56 - y20_43 - y39_56 - y12_39 - y20_52 - y31_61 - y4_44 - y23_57 - y13_22 - y32_35 - y16_18 - y1_29 - y13_31 - y4_62 - y24_31 - y13_40 - y24_40 - y1_47 - y35_49 - y1_56 - y17_19 - y46_55 - y9_15 - y38_51 - y5_26 - y17_28 - y49_51 - y9_24 - y57_64 - y7_63 - y27_50 - y50_52 - y8_55 - y30_55 - y0_51 - y19_64 - y12_25 - y20_38 - y12_34 - y20_47 - y4_30 - y23_43 - y4_48 - y12_61 - y13_26 - y24_26 - y16_31 - y13_44 - y16_49 - y5_12 - y46_50 - y38_46 - y57_59 - y38_55 - y5_30 - y15_62 - y26_62 - y5_39 - y38_64 - y19_32 - y8_41 - y19_41 - y50_56 - y0_37 - y11_37 - y0_46 - y11_46 - y8_59 - y19_59 - y0_64 - y11_64 - y20_42 - y20_51 - y4_43 - y45_53 - y1_28 - y24_30 - y22_60 - y1_37 - y38_41 - y5_16 - y57_63 - y26_57 - y7_53 - y7_62 - y27_40 - y8_36 - y30_36 - y27_49 - y0_41 - y0_50 - y12_15 - y19_63 - y4_11 - y23_24 - y12_33 - y4_29 - y12_42 - y1_5 - y23_42 - y34_39 - y4_47 - y34_48 - y53_61 - y22_55 - y1_32 - y3_51 - y37_53 - y14_60 - y15_34 - y15_43 - y15_52 - y26_52 - y38_54 - y18_48 - y49_54 - y26_61 - y38_63 - y8_22 - y0_18 - y11_18 - y0_27 - y11_27 - y8_40 - y19_40 - y27_53 - y0_36 - y11_36 - y30_40 - y52_55 - y20_32 - y33_51 - y12_37 - y25_56 - y4_33 - y34_43 - y1_18 - y53_56 - y22_50 - y3_46 - y37_48 - y34_61 - y37_57 - y15_20 - y7_25 - y18_25 - y15_47 - y38_49 - y0_4 - y0_13 - y11_13 - y8_26 - y48_62 - y11_22 - y8_35 - y19_35 - y30_35 - y0_31 - y30_44 - y4_10 - y44_46 - y12_23 - y52_59 - y4_28 - y33_64 - y22_36 - y3_32 - y34_47 - y3_41 - y34_56 - y37_52 - y14_59 - y37_61 - y18_29 - y15_42 - y18_47 - y8_12 - y7_56 - y0_17 - y0_26 - y29_62 - y63_64 - y21_58 - y11_35 - y41_45 - y4_5 - y33_41 - y44_50 - y41_63 - y2_44 - y25_64 - y34_42 - y3_36 - y14_36 - y34_51 - y14_45 - y37_47 - y22_58 - y3_54 - y14_54 - y14_63 - y55_64 - y59_62 - y26_37 - y18_33 - y26_46 - y11_12 - y19_25 - y0_21 - y40_57 - y11_30 - y25_32 - y4_9 - y44_45 - y52_58 - y10_52 - y44_54 - y3_13 - y25_59 - y14_22 - y22_35 - y3_31 - y3_49 - y14_49 - y15_23 - y55_59 - y18_19 - y15_32 - y28_51 - y18_37 - y6_41 - y6_50 - y29_61 - y10_20 - y2_34 - y25_45 - y3_8 - y2_52 - y3_17 - y43_62 - y13_58 - y14_44 - y16_63 - y15_18 - y36_50 - y7_23 - y18_23 - y5_53 - y9_60 - y29_47 - y40_56 - y6_63 - y10_42 - y10_51 - y3_12 - y22_25 - y51_61 - y2_56 - y3_21 - y14_21 - y32_57 - y35_53 - y17_32 - y17_41 - y36_54 - y47_63 - y6_31 - y29_42 - y21_38 - y21_47 - y6_58 - y39_55 - y10_28 - y2_24 - y25_26 - y2_33 - y2_42 - y51_56 - y14_16 - y3_25 - y16_44 - y16_62 - y9_23 - y5_34 - y9_32 - y17_45 - y47_58 - y6_17 - y2_10 - y20_55 - y54_57 - y12_51 - y23_51 - y31_64 - y4_56 - y32_38 - y1_41 - y13_43 - y32_56 - y13_52 - y35_52 - y16_48 - y17_22 - y9_18 - y28_31 - y9_27 - y3_56 - y9_36 - y17_49 - y9_45 - y6_21 - y21_28 - y6_39 - y42_60 - y39_45 - y20_41 - y31_41 - y10_18 - y2_14 - y12_46 - y23_55 - y32_33 - y1_45 - y13_47 - y16_52 - y46_53 - y16_61 - y17_26 - y17_35 - y6_7 - y5_51 - y6_16 - y6_25 - y30_53 - y42_64 - y0_58 - y39_40 - y31_36 - y39_58 - y12_41 - y23_41 - y31_54 - y12_50 - y13_15 - y4_46 - y12_59 - y13_24 - y4_55 - y16_20 - y1_31 - y24_42 - y35_42 - y9_17 - y5_28 - y17_30 - y9_26 - y15_60 - y38_62 - y27_34 - y6_11 - y27_52 - y42_50 - y61_63 - y0_44 - y20_22 - y11_53 - y12_18 - y20_31 - y39_44 - y2_4 - y31_49 - y4_32 - y20_58 - y12_54 - y53_55 - y13_37 - y35_37 - y1_44 - y16_42 - y57_61 - y9_21 - y26_55 - y5_32 - y49_57 - y27_29 - y8_25 - y8_34 - y42_45 - y8_52 - y19_52 - y19_61 - y30_61 - y11_57 - y12_31 - y23_31 - y4_27 - y23_40 - y1_3 - y4_36 - y23_49 - y13_14 - y4_45 - y45_55 - y1_30 - y22_62 - y46_47 - y38_43 - y5_18 - y15_50 - y26_50 - y15_59 - y8_20 - y27_33 - y0_34 - y11_34 - y0_43 - y30_56 - y20_21 - y11_52 - y12_17 - y11_61 - y31_39 - y23_35 - y4_31 - y23_44 - y25_63 - y34_50 - y45_50 - y1_25 - y37_46 - y37_55 - y37_64 - y26_27 - y46_51 - y7_32 - y26_45 - y15_54 - y26_54 - y18_50 - y26_63 - y7_59 - y8_24 - y18_59 - y8_33 - y0_29 - y30_42 - y30_51 - y11_47 - y60_61 - y12_21 - y44_53 - y4_26 - y10_60 - y44_62 - y4_35 - y34_36 - y53_58 - y37_50 - y3_57 - y37_49 - y15_40 - y7_54 - y18_54 - y19_28 - y0_24 - y0_42 - y11_42 - y41_43 - y41_52 - y4_12 - y33_48 - y22_29 - y1_6 - y14_34 - y3_52 - y14_52 - y3_61 - y7_22 - y18_22 - y48_59 - y29_55 - y30_32 - y0_28 - y41_47 - y4_7 - y44_52 - y33_61 - y14_20 - y34_35 - y3_29 - y22_42 - y3_38 - y3_47 - y14_56
 Subject to
C1: x0+x1 <=1 
C2: x0+x2 <=1 
C3: x0+x4-y0_4 <=1 
C4: x0+x5 <=1 
C5: x0+x7 <=1 
C6: x0+x8 <=1 
C7: x0+x11 <=1 
C8: x0+x13-y0_13 <=1 
C9: x0+x15 <=1 
C10: x0+x16 <=1 
C11: x0+x17-y0_17 <=1 
C12: x0+x18-y0_18 <=1 
C13: x0+x20 <=1 
C14: x0+x21-y0_21 <=1 
C15: x0+x22 <=1 
C16: x0+x23 <=1 
C17: x0+x24-y0_24 <=1 
C18: x0+x25 <=1 
C19: x0+x26-y0_26 <=1 
C20: x0+x27-y0_27 <=1 
C21: x0+x28-y0_28 <=1 
C22: x0+x29-y0_29 <=1 
C23: x0+x30 <=1 
C24: x0+x31-y0_31 <=1 
C25: x0+x32 <=1 
C26: x0+x34-y0_34 <=1 
C27: x0+x36-y0_36 <=1 
C28: x0+x37-y0_37 <=1 
C29: x0+x39 <=1 
C30: x0+x40 <=1 
C31: x0+x41-y0_41 <=1 
C32: x0+x42-y0_42 <=1 
C33: x0+x43-y0_43 <=1 
C34: x0+x44-y0_44 <=1 
C35: x0+x45 <=1 
C36: x0+x46-y0_46 <=1 
C37: x0+x49 <=1 
C38: x0+x50-y0_50 <=1 
C39: x0+x51-y0_51 <=1 
C40: x0+x56-y0_56 <=1 
C41: x0+x58-y0_58 <=1 
C42: x0+x59 <=1 
C43: x0+x64-y0_64 <=1 
C44: x1+x2 <=1 
C45: x1+x3-y1_3 <=1 
C46: x1+x4 <=1 
C47: x1+x5-y1_5 <=1 
C48: x1+x6-y1_6 <=1 
C49: x1+x7 <=1 
C50: x1+x8 <=1 
C51: x1+x9 <=1 
C52: x1+x10 <=1 
C53: x1+x12 <=1 
C54: x1+x13 <=1 
C55: x1+x14 <=1 
C56: x1+x15 <=1 
C57: x1+x16 <=1 
C58: x1+x17 <=1 
C59: x1+x18-y1_18 <=1 
C60: x1+x19 <=1 
C61: x1+x20 <=1 
C62: x1+x22 <=1 
C63: x1+x23 <=1 
C64: x1+x25-y1_25 <=1 
C65: x1+x27 <=1 
C66: x1+x28-y1_28 <=1 
C67: x1+x29-y1_29 <=1 
C68: x1+x30-y1_30 <=1 
C69: x1+x31-y1_31 <=1 
C70: x1+x32-y1_32 <=1 
C71: x1+x33 <=1 
C72: x1+x34-y1_34 <=1 
C73: x1+x35 <=1 
C74: x1+x36 <=1 
C75: x1+x37-y1_37 <=1 
C76: x1+x38 <=1 
C77: x1+x40 <=1 
C78: x1+x41-y1_41 <=1 
C79: x1+x44-y1_44 <=1 
C80: x1+x45-y1_45 <=1 
C81: x1+x46 <=1 
C82: x1+x47-y1_47 <=1 
C83: x1+x48-y1_48 <=1 
C84: x1+x52 <=1 
C85: x1+x53-y1_53 <=1 
C86: x1+x55 <=1 
C87: x1+x56-y1_56 <=1 
C88: x1+x57 <=1 
C89: x1+x58 <=1 
C90: x1+x60 <=1 
C91: x1+x61-y1_61 <=1 
C92: x1+x62 <=1 
C93: x2+x4-y2_4 <=1 
C94: x2+x6 <=1 
C95: x2+x8-y2_8 <=1 
C96: x2+x10-y2_10 <=1 
C97: x2+x11 <=1 
C98: x2+x13 <=1 
C99: x2+x14-y2_14 <=1 
C100: x2+x15 <=1 
C101: x2+x17-y2_17 <=1 
C102: x2+x18 <=1 
C103: x2+x20 <=1 
C104: x2+x21 <=1 
C105: x2+x22-y2_22 <=1 
C106: x2+x24-y2_24 <=1 
C107: x2+x27 <=1 
C108: x2+x28 <=1 
C109: x2+x29 <=1 
C110: x2+x30 <=1 
C111: x2+x31 <=1 
C112: x2+x32-y2_32 <=1 
C113: x2+x33-y2_33 <=1 
C114: x2+x34-y2_34 <=1 
C115: x2+x35 <=1 
C116: x2+x37 <=1 
C117: x2+x40-y2_40 <=1 
C118: x2+x41-y2_41 <=1 
C119: x2+x42-y2_42 <=1 
C120: x2+x43 <=1 
C121: x2+x44-y2_44 <=1 
C122: x2+x45-y2_45 <=1 
C123: x2+x49 <=1 
C124: x2+x50-y2_50 <=1 
C125: x2+x52-y2_52 <=1 
C126: x2+x56-y2_56 <=1 
C127: x2+x57 <=1 
C128: x2+x58 <=1 
C129: x2+x59 <=1 
C130: x3+x4-y3_4 <=1 
C131: x3+x5 <=1 
C132: x3+x6 <=1 
C133: x3+x7 <=1 
C134: x3+x8-y3_8 <=1 
C135: x3+x10-y3_10 <=1 
C136: x3+x11 <=1 
C137: x3+x12-y3_12 <=1 
C138: x3+x13-y3_13 <=1 
C139: x3+x15-y3_15 <=1 
C140: x3+x17-y3_17 <=1 
C141: x3+x18-y3_18 <=1 
C142: x3+x19-y3_19 <=1 
C143: x3+x21-y3_21 <=1 
C144: x3+x22 <=1 
C145: x3+x25-y3_25 <=1 
C146: x3+x26 <=1 
C147: x3+x27 <=1 
C148: x3+x29-y3_29 <=1 
C149: x3+x31-y3_31 <=1 
C150: x3+x32-y3_32 <=1 
C151: x3+x33-y3_33 <=1 
C152: x3+x34 <=1 
C153: x3+x35 <=1 
C154: x3+x36-y3_36 <=1 
C155: x3+x38-y3_38 <=1 
C156: x3+x39 <=1 
C157: x3+x40 <=1 
C158: x3+x41-y3_41 <=1 
C159: x3+x42 <=1 
C160: x3+x46-y3_46 <=1 
C161: x3+x47-y3_47 <=1 
C162: x3+x48 <=1 
C163: x3+x49-y3_49 <=1 
C164: x3+x50 <=1 
C165: x3+x51-y3_51 <=1 
C166: x3+x52-y3_52 <=1 
C167: x3+x53 <=1 
C168: x3+x54-y3_54 <=1 
C169: x3+x56-y3_56 <=1 
C170: x3+x57-y3_57 <=1 
C171: x3+x58 <=1 
C172: x3+x59 <=1 
C173: x3+x61-y3_61 <=1 
C174: x3+x63 <=1 
C175: x4+x5-y4_5 <=1 
C176: x4+x7-y4_7 <=1 
C177: x4+x8 <=1 
C178: x4+x9-y4_9 <=1 
C179: x4+x10-y4_10 <=1 
C180: x4+x11-y4_11 <=1 
C181: x4+x12-y4_12 <=1 
C182: x4+x13 <=1 
C183: x4+x14 <=1 
C184: x4+x18 <=1 
C185: x4+x25 <=1 
C186: x4+x26-y4_26 <=1 
C187: x4+x27-y4_27 <=1 
C188: x4+x28-y4_28 <=1 
C189: x4+x29-y4_29 <=1 
C190: x4+x30-y4_30 <=1 
C191: x4+x31-y4_31 <=1 
C192: x4+x32-y4_32 <=1 
C193: x4+x33-y4_33 <=1 
C194: x4+x34 <=1 
C195: x4+x35-y4_35 <=1 
C196: x4+x36-y4_36 <=1 
C197: x4+x37 <=1 
C198: x4+x39 <=1 
C199: x4+x40 <=1 
C200: x4+x42 <=1 
C201: x4+x43-y4_43 <=1 
C202: x4+x44-y4_44 <=1 
C203: x4+x45-y4_45 <=1 
C204: x4+x46-y4_46 <=1 
C205: x4+x47-y4_47 <=1 
C206: x4+x48-y4_48 <=1 
C207: x4+x53 <=1 
C208: x4+x55-y4_55 <=1 
C209: x4+x56-y4_56 <=1 
C210: x4+x58-y4_58 <=1 
C211: x4+x61 <=1 
C212: x4+x62-y4_62 <=1 
C213: x4+x63 <=1 
C214: x5+x7 <=1 
C215: x5+x8 <=1 
C216: x5+x9 <=1 
C217: x5+x12-y5_12 <=1 
C218: x5+x13 <=1 
C219: x5+x16-y5_16 <=1 
C220: x5+x17 <=1 
C221: x5+x18-y5_18 <=1 
C222: x5+x19 <=1 
C223: x5+x21 <=1 
C224: x5+x22 <=1 
C225: x5+x24 <=1 
C226: x5+x26-y5_26 <=1 
C227: x5+x27 <=1 
C228: x5+x28-y5_28 <=1 
C229: x5+x30-y5_30 <=1 
C230: x5+x31 <=1 
C231: x5+x32-y5_32 <=1 
C232: x5+x34-y5_34 <=1 
C233: x5+x36 <=1 
C234: x5+x37 <=1 
C235: x5+x39-y5_39 <=1 
C236: x5+x41-y5_41 <=1 
C237: x5+x42 <=1 
C238: x5+x43 <=1 
C239: x5+x48 <=1 
C240: x5+x49-y5_49 <=1 
C241: x5+x50-y5_50 <=1 
C242: x5+x51-y5_51 <=1 
C243: x5+x52 <=1 
C244: x5+x53-y5_53 <=1 
C245: x5+x54-y5_54 <=1 
C246: x5+x56 <=1 
C247: x5+x58-y5_58 <=1 
C248: x5+x61 <=1 
C249: x5+x64 <=1 
C250: x6+x7-y6_7 <=1 
C251: x6+x10 <=1 
C252: x6+x11-y6_11 <=1 
C253: x6+x13 <=1 
C254: x6+x14 <=1 
C255: x6+x16-y6_16 <=1 
C256: x6+x17-y6_17 <=1 
C257: x6+x20 <=1 
C258: x6+x21-y6_21 <=1 
C259: x6+x24 <=1 
C260: x6+x25-y6_25 <=1 
C261: x6+x26 <=1 
C262: x6+x27 <=1 
C263: x6+x28 <=1 
C264: x6+x30 <=1 
C265: x6+x31-y6_31 <=1 
C266: x6+x33 <=1 
C267: x6+x34 <=1 
C268: x6+x36 <=1 
C269: x6+x37 <=1 
C270: x6+x38-y6_38 <=1 
C271: x6+x39-y6_39 <=1 
C272: x6+x40 <=1 
C273: x6+x41-y6_41 <=1 
C274: x6+x42 <=1 
C275: x6+x46 <=1 
C276: x6+x48 <=1 
C277: x6+x50-y6_50 <=1 
C278: x6+x52 <=1 
C279: x6+x53 <=1 
C280: x6+x56 <=1 
C281: x6+x57 <=1 
C282: x6+x58-y6_58 <=1 
C283: x6+x59 <=1 
C284: x6+x63-y6_63 <=1 
C285: x6+x64 <=1 
C286: x7+x11 <=1 
C287: x7+x12-y7_12 <=1 
C288: x7+x14 <=1 
C289: x7+x16 <=1 
C290: x7+x18 <=1 
C291: x7+x20 <=1 
C292: x7+x21 <=1 
C293: x7+x22-y7_22 <=1 
C294: x7+x23-y7_23 <=1 
C295: x7+x25-y7_25 <=1 
C296: x7+x26-y7_26 <=1 
C297: x7+x27 <=1 
C298: x7+x32-y7_32 <=1 
C299: x7+x35 <=1 
C300: x7+x39 <=1 
C301: x7+x43 <=1 
C302: x7+x45 <=1 
C303: x7+x48 <=1 
C304: x7+x50 <=1 
C305: x7+x51 <=1 
C306: x7+x53-y7_53 <=1 
C307: x7+x54-y7_54 <=1 
C308: x7+x56-y7_56 <=1 
C309: x7+x59-y7_59 <=1 
C310: x7+x60 <=1 
C311: x7+x62-y7_62 <=1 
C312: x7+x63-y7_63 <=1 
C313: x7+x64 <=1 
C314: x8+x10 <=1 
C315: x8+x12-y8_12 <=1 
C316: x8+x13 <=1 
C317: x8+x16 <=1 
C318: x8+x18 <=1 
C319: x8+x19 <=1 
C320: x8+x20-y8_20 <=1 
C321: x8+x22-y8_22 <=1 
C322: x8+x23 <=1 
C323: x8+x24-y8_24 <=1 
C324: x8+x25-y8_25 <=1 
C325: x8+x26-y8_26 <=1 
C326: x8+x27 <=1 
C327: x8+x29 <=1 
C328: x8+x30 <=1 
C329: x8+x33-y8_33 <=1 
C330: x8+x34-y8_34 <=1 
C331: x8+x35-y8_35 <=1 
C332: x8+x36-y8_36 <=1 
C333: x8+x40-y8_40 <=1 
C334: x8+x41-y8_41 <=1 
C335: x8+x42 <=1 
C336: x8+x43 <=1 
C337: x8+x44 <=1 
C338: x8+x48 <=1 
C339: x8+x52-y8_52 <=1 
C340: x8+x55-y8_55 <=1 
C341: x8+x56 <=1 
C342: x8+x59-y8_59 <=1 
C343: x8+x60 <=1 
C344: x8+x61 <=1 
C345: x8+x62 <=1 
C346: x8+x63 <=1 
C347: x9+x10 <=1 
C348: x9+x11-y9_11 <=1 
C349: x9+x12 <=1 
C350: x9+x15-y9_15 <=1 
C351: x9+x16 <=1 
C352: x9+x17-y9_17 <=1 
C353: x9+x18-y9_18 <=1 
C354: x9+x21-y9_21 <=1 
C355: x9+x23-y9_23 <=1 
C356: x9+x24-y9_24 <=1 
C357: x9+x25-y9_25 <=1 
C358: x9+x26-y9_26 <=1 
C359: x9+x27-y9_27 <=1 
C360: x9+x28 <=1 
C361: x9+x29 <=1 
C362: x9+x31 <=1 
C363: x9+x32-y9_32 <=1 
C364: x9+x33 <=1 
C365: x9+x35 <=1 
C366: x9+x36-y9_36 <=1 
C367: x9+x38 <=1 
C368: x9+x39-y9_39 <=1 
C369: x9+x40 <=1 
C370: x9+x41 <=1 
C371: x9+x42 <=1 
C372: x9+x43-y9_43 <=1 
C373: x9+x44 <=1 
C374: x9+x45-y9_45 <=1 
C375: x9+x47 <=1 
C376: x9+x49-y9_49 <=1 
C377: x9+x50 <=1 
C378: x9+x53 <=1 
C379: x9+x54 <=1 
C380: x9+x58-y9_58 <=1 
C381: x9+x59 <=1 
C382: x9+x60-y9_60 <=1 
C383: x9+x63 <=1 
C384: x9+x64 <=1 
C385: x10+x11 <=1 
C386: x10+x14 <=1 
C387: x10+x16 <=1 
C388: x10+x18-y10_18 <=1 
C389: x10+x19 <=1 
C390: x10+x20-y10_20 <=1 
C391: x10+x22 <=1 
C392: x10+x25-y10_25 <=1 
C393: x10+x28-y10_28 <=1 
C394: x10+x29 <=1 
C395: x10+x33 <=1 
C396: x10+x34 <=1 
C397: x10+x35-y10_35 <=1 
C398: x10+x36 <=1 
C399: x10+x40 <=1 
C400: x10+x41 <=1 
C401: x10+x42-y10_42 <=1 
C402: x10+x45-y10_45 <=1 
C403: x10+x46 <=1 
C404: x10+x49 <=1 
C405: x10+x51-y10_51 <=1 
C406: x10+x52-y10_52 <=1 
C407: x10+x54-y10_54 <=1 
C408: x10+x57 <=1 
C409: x10+x60-y10_60 <=1 
C410: x10+x61 <=1 
C411: x10+x62 <=1 
C412: x10+x63 <=1 
C413: x11+x12-y11_12 <=1 
C414: x11+x13-y11_13 <=1 
C415: x11+x14 <=1 
C416: x11+x17 <=1 
C417: x11+x18-y11_18 <=1 
C418: x11+x21 <=1 
C419: x11+x22-y11_22 <=1 
C420: x11+x26 <=1 
C421: x11+x27-y11_27 <=1 
C422: x11+x28 <=1 
C423: x11+x30-y11_30 <=1 
C424: x11+x33 <=1 
C425: x11+x34-y11_34 <=1 
C426: x11+x35-y11_35 <=1 
C427: x11+x36-y11_36 <=1 
C428: x11+x37-y11_37 <=1 
C429: x11+x39 <=1 
C430: x11+x40 <=1 
C431: x11+x41 <=1 
C432: x11+x42-y11_42 <=1 
C433: x11+x43 <=1 
C434: x11+x45 <=1 
C435: x11+x46-y11_46 <=1 
C436: x11+x47-y11_47 <=1 
C437: x11+x50 <=1 
C438: x11+x52-y11_52 <=1 
C439: x11+x53-y11_53 <=1 
C440: x11+x56 <=1 
C441: x11+x57-y11_57 <=1 
C442: x11+x58 <=1 
C443: x11+x61-y11_61 <=1 
C444: x11+x63 <=1 
C445: x11+x64-y11_64 <=1 
C446: x12+x15-y12_15 <=1 
C447: x12+x17-y12_17 <=1 
C448: x12+x18-y12_18 <=1 
C449: x12+x20 <=1 
C450: x12+x21-y12_21 <=1 
C451: x12+x22 <=1 
C452: x12+x23-y12_23 <=1 
C453: x12+x24 <=1 
C454: x12+x25-y12_25 <=1 
C455: x12+x26 <=1 
C456: x12+x31-y12_31 <=1 
C457: x12+x33-y12_33 <=1 
C458: x12+x34-y12_34 <=1 
C459: x12+x36 <=1 
C460: x12+x37-y12_37 <=1 
C461: x12+x39-y12_39 <=1 
C462: x12+x41-y12_41 <=1 
C463: x12+x42-y12_42 <=1 
C464: x12+x46-y12_46 <=1 
C465: x12+x47 <=1 
C466: x12+x48 <=1 
C467: x12+x50-y12_50 <=1 
C468: x12+x51-y12_51 <=1 
C469: x12+x53 <=1 
C470: x12+x54-y12_54 <=1 
C471: x12+x55 <=1 
C472: x12+x56 <=1 
C473: x12+x58 <=1 
C474: x12+x59-y12_59 <=1 
C475: x12+x61-y12_61 <=1 
C476: x13+x14-y13_14 <=1 
C477: x13+x15-y13_15 <=1 
C478: x13+x16 <=1 
C479: x13+x17 <=1 
C480: x13+x18 <=1 
C481: x13+x20 <=1 
C482: x13+x22-y13_22 <=1 
C483: x13+x24-y13_24 <=1 
C484: x13+x25 <=1 
C485: x13+x26-y13_26 <=1 
C486: x13+x27 <=1 
C487: x13+x29 <=1 
C488: x13+x30 <=1 
C489: x13+x31-y13_31 <=1 
C490: x13+x32-y13_32 <=1 
C491: x13+x33 <=1 
C492: x13+x35 <=1 
C493: x13+x37-y13_37 <=1 
C494: x13+x38 <=1 
C495: x13+x40-y13_40 <=1 
C496: x13+x41-y13_41 <=1 
C497: x13+x43-y13_43 <=1 
C498: x13+x44-y13_44 <=1 
C499: x13+x45-y13_45 <=1 
C500: x13+x47-y13_47 <=1 
C501: x13+x48 <=1 
C502: x13+x50-y13_50 <=1 
C503: x13+x51-y13_51 <=1 
C504: x13+x52-y13_52 <=1 
C505: x13+x53 <=1 
C506: x13+x54-y13_54 <=1 
C507: x13+x55-y13_55 <=1 
C508: x13+x56 <=1 
C509: x13+x58-y13_58 <=1 
C510: x13+x59 <=1 
C511: x13+x64 <=1 
C512: x14+x15 <=1 
C513: x14+x16-y14_16 <=1 
C514: x14+x17 <=1 
C515: x14+x18-y14_18 <=1 
C516: x14+x19 <=1 
C517: x14+x20-y14_20 <=1 
C518: x14+x21-y14_21 <=1 
C519: x14+x22-y14_22 <=1 
C520: x14+x24 <=1 
C521: x14+x25 <=1 
C522: x14+x26 <=1 
C523: x14+x27 <=1 
C524: x14+x28-y14_28 <=1 
C525: x14+x29 <=1 
C526: x14+x30 <=1 
C527: x14+x31 <=1 
C528: x14+x34-y14_34 <=1 
C529: x14+x35 <=1 
C530: x14+x36-y14_36 <=1 
C531: x14+x37 <=1 
C532: x14+x41 <=1 
C533: x14+x42-y14_42 <=1 
C534: x14+x44-y14_44 <=1 
C535: x14+x45-y14_45 <=1 
C536: x14+x48 <=1 
C537: x14+x49-y14_49 <=1 
C538: x14+x51 <=1 
C539: x14+x52-y14_52 <=1 
C540: x14+x54-y14_54 <=1 
C541: x14+x55 <=1 
C542: x14+x56-y14_56 <=1 
C543: x14+x59-y14_59 <=1 
C544: x14+x60-y14_60 <=1 
C545: x14+x61 <=1 
C546: x14+x63-y14_63 <=1 
C547: x15+x16-y15_16 <=1 
C548: x15+x18-y15_18 <=1 
C549: x15+x20-y15_20 <=1 
C550: x15+x22 <=1 
C551: x15+x23-y15_23 <=1 
C552: x15+x25 <=1 
C553: x15+x26 <=1 
C554: x15+x28 <=1 
C555: x15+x30-y15_30 <=1 
C556: x15+x32-y15_32 <=1 
C557: x15+x33 <=1 
C558: x15+x34-y15_34 <=1 
C559: x15+x38 <=1 
C560: x15+x39-y15_39 <=1 
C561: x15+x40-y15_40 <=1 
C562: x15+x42-y15_42 <=1 
C563: x15+x43-y15_43 <=1 
C564: x15+x44 <=1 
C565: x15+x45 <=1 
C566: x15+x47-y15_47 <=1 
C567: x15+x49 <=1 
C568: x15+x50-y15_50 <=1 
C569: x15+x52-y15_52 <=1 
C570: x15+x53 <=1 
C571: x15+x54-y15_54 <=1 
C572: x15+x56 <=1 
C573: x15+x57 <=1 
C574: x15+x59-y15_59 <=1 
C575: x15+x60-y15_60 <=1 
C576: x15+x62-y15_62 <=1 
C577: x15+x63 <=1 
C578: x15+x64 <=1 
C579: x16+x18-y16_18 <=1 
C580: x16+x19 <=1 
C581: x16+x20-y16_20 <=1 
C582: x16+x21 <=1 
C583: x16+x22 <=1 
C584: x16+x24 <=1 
C585: x16+x25 <=1 
C586: x16+x26 <=1 
C587: x16+x28 <=1 
C588: x16+x29 <=1 
C589: x16+x30 <=1 
C590: x16+x31-y16_31 <=1 
C591: x16+x32 <=1 
C592: x16+x33 <=1 
C593: x16+x34 <=1 
C594: x16+x35 <=1 
C595: x16+x37 <=1 
C596: x16+x38 <=1 
C597: x16+x40 <=1 
C598: x16+x42-y16_42 <=1 
C599: x16+x44-y16_44 <=1 
C600: x16+x45 <=1 
C601: x16+x48-y16_48 <=1 
C602: x16+x49-y16_49 <=1 
C603: x16+x50 <=1 
C604: x16+x52-y16_52 <=1 
C605: x16+x53 <=1 
C606: x16+x54 <=1 
C607: x16+x56 <=1 
C608: x16+x59 <=1 
C609: x16+x60-y16_60 <=1 
C610: x16+x61-y16_61 <=1 
C611: x16+x62-y16_62 <=1 
C612: x16+x63-y16_63 <=1 
C613: x17+x19-y17_19 <=1 
C614: x17+x20 <=1 
C615: x17+x22-y17_22 <=1 
C616: x17+x24-y17_24 <=1 
C617: x17+x26-y17_26 <=1 
C618: x17+x27 <=1 
C619: x17+x28-y17_28 <=1 
C620: x17+x29-y17_29 <=1 
C621: x17+x30-y17_30 <=1 
C622: x17+x32-y17_32 <=1 
C623: x17+x34 <=1 
C624: x17+x35-y17_35 <=1 
C625: x17+x38 <=1 
C626: x17+x39 <=1 
C627: x17+x41-y17_41 <=1 
C628: x17+x43 <=1 
C629: x17+x44-y17_44 <=1 
C630: x17+x45-y17_45 <=1 
C631: x17+x46 <=1 
C632: x17+x47-y17_47 <=1 
C633: x17+x48-y17_48 <=1 
C634: x17+x49-y17_49 <=1 
C635: x17+x50 <=1 
C636: x17+x52 <=1 
C637: x17+x56 <=1 
C638: x17+x59 <=1 
C639: x17+x62-y17_62 <=1 
C640: x17+x63 <=1 
C641: x17+x64 <=1 
C642: x18+x19-y18_19 <=1 
C643: x18+x22-y18_22 <=1 
C644: x18+x23-y18_23 <=1 
C645: x18+x25-y18_25 <=1 
C646: x18+x26 <=1 
C647: x18+x28 <=1 
C648: x18+x29-y18_29 <=1 
C649: x18+x30 <=1 
C650: x18+x31 <=1 
C651: x18+x33-y18_33 <=1 
C652: x18+x34 <=1 
C653: x18+x37-y18_37 <=1 
C654: x18+x39 <=1 
C655: x18+x41 <=1 
C656: x18+x42 <=1 
C657: x18+x46 <=1 
C658: x18+x47-y18_47 <=1 
C659: x18+x48-y18_48 <=1 
C660: x18+x49 <=1 
C661: x18+x50-y18_50 <=1 
C662: x18+x51 <=1 
C663: x18+x52 <=1 
C664: x18+x54-y18_54 <=1 
C665: x18+x55 <=1 
C666: x18+x59-y18_59 <=1 
C667: x18+x61 <=1 
C668: x18+x63 <=1 
C669: x18+x64 <=1 
C670: x19+x21 <=1 
C671: x19+x25-y19_25 <=1 
C672: x19+x27 <=1 
C673: x19+x28-y19_28 <=1 
C674: x19+x29 <=1 
C675: x19+x30 <=1 
C676: x19+x31 <=1 
C677: x19+x32-y19_32 <=1 
C678: x19+x33 <=1 
C679: x19+x34 <=1 
C680: x19+x35-y19_35 <=1 
C681: x19+x37 <=1 
C682: x19+x38 <=1 
C683: x19+x40-y19_40 <=1 
C684: x19+x41-y19_41 <=1 
C685: x19+x45 <=1 
C686: x19+x46 <=1 
C687: x19+x47 <=1 
C688: x19+x50 <=1 
C689: x19+x51 <=1 
C690: x19+x52-y19_52 <=1 
C691: x19+x54 <=1 
C692: x19+x56 <=1 
C693: x19+x57 <=1 
C694: x19+x59-y19_59 <=1 
C695: x19+x61-y19_61 <=1 
C696: x19+x62 <=1 
C697: x19+x63-y19_63 <=1 
C698: x19+x64-y19_64 <=1 
C699: x20+x21-y20_21 <=1 
C700: x20+x22-y20_22 <=1 
C701: x20+x24 <=1 
C702: x20+x26 <=1 
C703: x20+x31-y20_31 <=1 
C704: x20+x32-y20_32 <=1 
C705: x20+x34 <=1 
C706: x20+x35 <=1 
C707: x20+x36 <=1 
C708: x20+x38-y20_38 <=1 
C709: x20+x39 <=1 
C710: x20+x41-y20_41 <=1 
C711: x20+x42-y20_42 <=1 
C712: x20+x43-y20_43 <=1 
C713: x20+x44 <=1 
C714: x20+x47-y20_47 <=1 
C715: x20+x48 <=1 
C716: x20+x50 <=1 
C717: x20+x51-y20_51 <=1 
C718: x20+x52-y20_52 <=1 
C719: x20+x54 <=1 
C720: x20+x55-y20_55 <=1 
C721: x20+x57 <=1 
C722: x20+x58-y20_58 <=1 
C723: x20+x59 <=1 
C724: x20+x60 <=1 
C725: x20+x62 <=1 
C726: x20+x63 <=1 
C727: x20+x64 <=1 
C728: x21+x28-y21_28 <=1 
C729: x21+x32 <=1 
C730: x21+x36-y21_36 <=1 
C731: x21+x37-y21_37 <=1 
C732: x21+x38-y21_38 <=1 
C733: x21+x39 <=1 
C734: x21+x40 <=1 
C735: x21+x44 <=1 
C736: x21+x45-y21_45 <=1 
C737: x21+x47-y21_47 <=1 
C738: x21+x50 <=1 
C739: x21+x51 <=1 
C740: x21+x53 <=1 
C741: x21+x54 <=1 
C742: x21+x55-y21_55 <=1 
C743: x21+x58-y21_58 <=1 
C744: x21+x59 <=1 
C745: x22+x25-y22_25 <=1 
C746: x22+x26 <=1 
C747: x22+x27 <=1 
C748: x22+x28-y22_28 <=1 
C749: x22+x29-y22_29 <=1 
C750: x22+x30 <=1 
C751: x22+x31 <=1 
C752: x22+x34 <=1 
C753: x22+x35-y22_35 <=1 
C754: x22+x36-y22_36 <=1 
C755: x22+x37 <=1 
C756: x22+x38 <=1 
C757: x22+x40 <=1 
C758: x22+x42-y22_42 <=1 
C759: x22+x44 <=1 
C760: x22+x45 <=1 
C761: x22+x50-y22_50 <=1 
C762: x22+x51 <=1 
C763: x22+x53 <=1 
C764: x22+x54 <=1 
C765: x22+x55-y22_55 <=1 
C766: x22+x58-y22_58 <=1 
C767: x22+x60-y22_60 <=1 
C768: x22+x61 <=1 
C769: x22+x62-y22_62 <=1 
C770: x22+x63 <=1 
C771: x23+x24-y23_24 <=1 
C772: x23+x26 <=1 
C773: x23+x27 <=1 
C774: x23+x30 <=1 
C775: x23+x31-y23_31 <=1 
C776: x23+x35-y23_35 <=1 
C777: x23+x36 <=1 
C778: x23+x40-y23_40 <=1 
C779: x23+x41-y23_41 <=1 
C780: x23+x42-y23_42 <=1 
C781: x23+x43-y23_43 <=1 
C782: x23+x44-y23_44 <=1 
C783: x23+x47 <=1 
C784: x23+x49-y23_49 <=1 
C785: x23+x51-y23_51 <=1 
C786: x23+x52 <=1 
C787: x23+x53 <=1 
C788: x23+x54 <=1 
C789: x23+x55-y23_55 <=1 
C790: x23+x57-y23_57 <=1 
C791: x23+x58-y23_58 <=1 
C792: x23+x62-y23_62 <=1 
C793: x24+x26-y24_26 <=1 
C794: x24+x29 <=1 
C795: x24+x30-y24_30 <=1 
C796: x24+x31-y24_31 <=1 
C797: x24+x32-y24_32 <=1 
C798: x24+x33 <=1 
C799: x24+x34 <=1 
C800: x24+x40-y24_40 <=1 
C801: x24+x41-y24_41 <=1 
C802: x24+x42-y24_42 <=1 
C803: x24+x44 <=1 
C804: x24+x45 <=1 
C805: x24+x47 <=1 
C806: x24+x48 <=1 
C807: x24+x49 <=1 
C808: x24+x52 <=1 
C809: x24+x55 <=1 
C810: x24+x56 <=1 
C811: x24+x59 <=1 
C812: x24+x60 <=1 
C813: x24+x62 <=1 
C814: x24+x63-y24_63 <=1 
C815: x24+x64 <=1 
C816: x25+x26-y25_26 <=1 
C817: x25+x31 <=1 
C818: x25+x32-y25_32 <=1 
C819: x25+x33-y25_33 <=1 
C820: x25+x35 <=1 
C821: x25+x37 <=1 
C822: x25+x38-y25_38 <=1 
C823: x25+x40 <=1 
C824: x25+x43-y25_43 <=1 
C825: x25+x44 <=1 
C826: x25+x45-y25_45 <=1 
C827: x25+x47-y25_47 <=1 
C828: x25+x52-y25_52 <=1 
C829: x25+x54 <=1 
C830: x25+x55 <=1 
C831: x25+x56-y25_56 <=1 
C832: x25+x59-y25_59 <=1 
C833: x25+x60 <=1 
C834: x25+x61-y25_61 <=1 
C835: x25+x63-y25_63 <=1 
C836: x25+x64-y25_64 <=1 
C837: x26+x27-y26_27 <=1 
C838: x26+x28 <=1 
C839: x26+x29 <=1 
C840: x26+x30-y26_30 <=1 
C841: x26+x31 <=1 
C842: x26+x32 <=1 
C843: x26+x34 <=1 
C844: x26+x35 <=1 
C845: x26+x36 <=1 
C846: x26+x37-y26_37 <=1 
C847: x26+x38 <=1 
C848: x26+x39-y26_39 <=1 
C849: x26+x40 <=1 
C850: x26+x43 <=1 
C851: x26+x45-y26_45 <=1 
C852: x26+x46-y26_46 <=1 
C853: x26+x47 <=1 
C854: x26+x50-y26_50 <=1 
C855: x26+x51 <=1 
C856: x26+x52-y26_52 <=1 
C857: x26+x54-y26_54 <=1 
C858: x26+x55-y26_55 <=1 
C859: x26+x57-y26_57 <=1 
C860: x26+x58 <=1 
C861: x26+x59 <=1 
C862: x26+x61-y26_61 <=1 
C863: x26+x62-y26_62 <=1 
C864: x26+x63-y26_63 <=1 
C865: x27+x28 <=1 
C866: x27+x29-y27_29 <=1 
C867: x27+x32 <=1 
C868: x27+x33-y27_33 <=1 
C869: x27+x34-y27_34 <=1 
C870: x27+x35 <=1 
C871: x27+x40-y27_40 <=1 
C872: x27+x46 <=1 
C873: x27+x49-y27_49 <=1 
C874: x27+x50-y27_50 <=1 
C875: x27+x52-y27_52 <=1 
C876: x27+x53-y27_53 <=1 
C877: x27+x55 <=1 
C878: x27+x57 <=1 
C879: x27+x64-y27_64 <=1 
C880: x28+x29-y28_29 <=1 
C881: x28+x30 <=1 
C882: x28+x31-y28_31 <=1 
C883: x28+x32 <=1 
C884: x28+x37 <=1 
C885: x28+x38 <=1 
C886: x28+x41 <=1 
C887: x28+x45 <=1 
C888: x28+x46 <=1 
C889: x28+x50 <=1 
C890: x28+x51-y28_51 <=1 
C891: x28+x52-y28_52 <=1 
C892: x28+x53-y28_53 <=1 
C893: x28+x56 <=1 
C894: x28+x57-y28_57 <=1 
C895: x28+x58-y28_58 <=1 
C896: x28+x61 <=1 
C897: x28+x63 <=1 
C898: x28+x64 <=1 
C899: x29+x30-y29_30 <=1 
C900: x29+x32 <=1 
C901: x29+x36 <=1 
C902: x29+x40 <=1 
C903: x29+x41 <=1 
C904: x29+x42-y29_42 <=1 
C905: x29+x43 <=1 
C906: x29+x44-y29_44 <=1 
C907: x29+x46 <=1 
C908: x29+x47-y29_47 <=1 
C909: x29+x48 <=1 
C910: x29+x49 <=1 
C911: x29+x55-y29_55 <=1 
C912: x29+x61-y29_61 <=1 
C913: x29+x62-y29_62 <=1 
C914: x29+x64 <=1 
C915: x30+x32-y30_32 <=1 
C916: x30+x33 <=1 
C917: x30+x35-y30_35 <=1 
C918: x30+x36-y30_36 <=1 
C919: x30+x39 <=1 
C920: x30+x40-y30_40 <=1 
C921: x30+x42-y30_42 <=1 
C922: x30+x44-y30_44 <=1 
C923: x30+x45 <=1 
C924: x30+x47 <=1 
C925: x30+x51-y30_51 <=1 
C926: x30+x52 <=1 
C927: x30+x53-y30_53 <=1 
C928: x30+x54 <=1 
C929: x30+x55-y30_55 <=1 
C930: x30+x56-y30_56 <=1 
C931: x30+x58 <=1 
C932: x30+x59 <=1 
C933: x30+x60-y30_60 <=1 
C934: x30+x61-y30_61 <=1 
C935: x31+x33 <=1 
C936: x31+x34 <=1 
C937: x31+x35 <=1 
C938: x31+x36-y31_36 <=1 
C939: x31+x37 <=1 
C940: x31+x38 <=1 
C941: x31+x39-y31_39 <=1 
C942: x31+x41-y31_41 <=1 
C943: x31+x44 <=1 
C944: x31+x45 <=1 
C945: x31+x47 <=1 
C946: x31+x48-y31_48 <=1 
C947: x31+x49-y31_49 <=1 
C948: x31+x50 <=1 
C949: x31+x51 <=1 
C950: x31+x52 <=1 
C951: x31+x54-y31_54 <=1 
C952: x31+x55 <=1 
C953: x31+x57 <=1 
C954: x31+x58 <=1 
C955: x31+x59 <=1 
C956: x31+x60 <=1 
C957: x31+x61-y31_61 <=1 
C958: x31+x63 <=1 
C959: x31+x64-y31_64 <=1 
C960: x32+x33-y32_33 <=1 
C961: x32+x34 <=1 
C962: x32+x35-y32_35 <=1 
C963: x32+x36-y32_36 <=1 
C964: x32+x37 <=1 
C965: x32+x38-y32_38 <=1 
C966: x32+x39 <=1 
C967: x32+x41 <=1 
C968: x32+x42 <=1 
C969: x32+x43 <=1 
C970: x32+x44 <=1 
C971: x32+x45 <=1 
C972: x32+x46 <=1 
C973: x32+x50 <=1 
C974: x32+x52 <=1 
C975: x32+x53 <=1 
C976: x32+x54 <=1 
C977: x32+x55-y32_55 <=1 
C978: x32+x56-y32_56 <=1 
C979: x32+x57-y32_57 <=1 
C980: x32+x59 <=1 
C981: x32+x60-y32_60 <=1 
C982: x32+x61 <=1 
C983: x32+x62 <=1 
C984: x32+x63-y32_63 <=1 
C985: x33+x36 <=1 
C986: x33+x41-y33_41 <=1 
C987: x33+x43 <=1 
C988: x33+x44 <=1 
C989: x33+x46 <=1 
C990: x33+x48-y33_48 <=1 
C991: x33+x50 <=1 
C992: x33+x51-y33_51 <=1 
C993: x33+x52 <=1 
C994: x33+x53 <=1 
C995: x33+x54 <=1 
C996: x33+x60 <=1 
C997: x33+x61-y33_61 <=1 
C998: x33+x62 <=1 
C999: x33+x64-y33_64 <=1 
C1000: x34+x35-y34_35 <=1 
C1001: x34+x36-y34_36 <=1 
C1002: x34+x38 <=1 
C1003: x34+x39-y34_39 <=1 
C1004: x34+x40 <=1 
C1005: x34+x42-y34_42 <=1 
C1006: x34+x43-y34_43 <=1 
C1007: x34+x46 <=1 
C1008: x34+x47-y34_47 <=1 
C1009: x34+x48-y34_48 <=1 
C1010: x34+x50-y34_50 <=1 
C1011: x34+x51-y34_51 <=1 
C1012: x34+x52 <=1 
C1013: x34+x55 <=1 
C1014: x34+x56-y34_56 <=1 
C1015: x34+x58 <=1 
C1016: x34+x59 <=1 
C1017: x34+x61-y34_61 <=1 
C1018: x34+x63 <=1 
C1019: x34+x64 <=1 
C1020: x35+x36 <=1 
C1021: x35+x37-y35_37 <=1 
C1022: x35+x39 <=1 
C1023: x35+x41 <=1 
C1024: x35+x42-y35_42 <=1 
C1025: x35+x45-y35_45 <=1 
C1026: x35+x49-y35_49 <=1 
C1027: x35+x50 <=1 
C1028: x35+x52-y35_52 <=1 
C1029: x35+x53-y35_53 <=1 
C1030: x35+x55 <=1 
C1031: x35+x57 <=1 
C1032: x35+x58 <=1 
C1033: x35+x59-y35_59 <=1 
C1034: x35+x63-y35_63 <=1 
C1035: x36+x37 <=1 
C1036: x36+x39 <=1 
C1037: x36+x40 <=1 
C1038: x36+x41 <=1 
C1039: x36+x42-y36_42 <=1 
C1040: x36+x44 <=1 
C1041: x36+x45 <=1 
C1042: x36+x48-y36_48 <=1 
C1043: x36+x49 <=1 
C1044: x36+x50-y36_50 <=1 
C1045: x36+x53-y36_53 <=1 
C1046: x36+x54-y36_54 <=1 
C1047: x36+x56-y36_56 <=1 
C1048: x36+x57 <=1 
C1049: x36+x60 <=1 
C1050: x36+x61 <=1 
C1051: x36+x62 <=1 
C1052: x36+x63 <=1 
C1053: x36+x64 <=1 
C1054: x37+x38 <=1 
C1055: x37+x39 <=1 
C1056: x37+x42 <=1 
C1057: x37+x43 <=1 
C1058: x37+x46-y37_46 <=1 
C1059: x37+x47-y37_47 <=1 
C1060: x37+x48-y37_48 <=1 
C1061: x37+x49-y37_49 <=1 
C1062: x37+x50-y37_50 <=1 
C1063: x37+x52-y37_52 <=1 
C1064: x37+x53-y37_53 <=1 
C1065: x37+x55-y37_55 <=1 
C1066: x37+x56 <=1 
C1067: x37+x57-y37_57 <=1 
C1068: x37+x59 <=1 
C1069: x37+x60 <=1 
C1070: x37+x61-y37_61 <=1 
C1071: x37+x62 <=1 
C1072: x37+x64-y37_64 <=1 
C1073: x38+x41-y38_41 <=1 
C1074: x38+x43-y38_43 <=1 
C1075: x38+x45 <=1 
C1076: x38+x46-y38_46 <=1 
C1077: x38+x48 <=1 
C1078: x38+x49-y38_49 <=1 
C1079: x38+x51-y38_51 <=1 
C1080: x38+x52 <=1 
C1081: x38+x53 <=1 
C1082: x38+x54-y38_54 <=1 
C1083: x38+x55-y38_55 <=1 
C1084: x38+x56 <=1 
C1085: x38+x59 <=1 
C1086: x38+x60 <=1 
C1087: x38+x61 <=1 
C1088: x38+x62-y38_62 <=1 
C1089: x38+x63-y38_63 <=1 
C1090: x38+x64-y38_64 <=1 
C1091: x39+x40-y39_40 <=1 
C1092: x39+x43-y39_43 <=1 
C1093: x39+x44-y39_44 <=1 
C1094: x39+x45-y39_45 <=1 
C1095: x39+x53 <=1 
C1096: x39+x54 <=1 
C1097: x39+x55-y39_55 <=1 
C1098: x39+x56-y39_56 <=1 
C1099: x39+x57 <=1 
C1100: x39+x58-y39_58 <=1 
C1101: x39+x61-y39_61 <=1 
C1102: x39+x62 <=1 
C1103: x39+x64 <=1 
C1104: x40+x41 <=1 
C1105: x40+x42 <=1 
C1106: x40+x43 <=1 
C1107: x40+x44 <=1 
C1108: x40+x46 <=1 
C1109: x40+x48 <=1 
C1110: x40+x50 <=1 
C1111: x40+x51 <=1 
C1112: x40+x52 <=1 
C1113: x40+x55 <=1 
C1114: x40+x56-y40_56 <=1 
C1115: x40+x57-y40_57 <=1 
C1116: x40+x61 <=1 
C1117: x41+x42-y41_42 <=1 
C1118: x41+x43-y41_43 <=1 
C1119: x41+x45-y41_45 <=1 
C1120: x41+x46 <=1 
C1121: x41+x47-y41_47 <=1 
C1122: x41+x50 <=1 
C1123: x41+x52-y41_52 <=1 
C1124: x41+x53 <=1 
C1125: x41+x56 <=1 
C1126: x41+x60 <=1 
C1127: x41+x61 <=1 
C1128: x41+x63-y41_63 <=1 
C1129: x42+x45-y42_45 <=1 
C1130: x42+x48 <=1 
C1131: x42+x50-y42_50 <=1 
C1132: x42+x51 <=1 
C1133: x42+x52 <=1 
C1134: x42+x53 <=1 
C1135: x42+x54 <=1 
C1136: x42+x57 <=1 
C1137: x42+x59 <=1 
C1138: x42+x60-y42_60 <=1 
C1139: x42+x62-y42_62 <=1 
C1140: x42+x64-y42_64 <=1 
C1141: x43+x47 <=1 
C1142: x43+x48 <=1 
C1143: x43+x52 <=1 
C1144: x43+x54-y43_54 <=1 
C1145: x43+x55 <=1 
C1146: x43+x56 <=1 
C1147: x43+x57 <=1 
C1148: x43+x58 <=1 
C1149: x43+x60-y43_60 <=1 
C1150: x43+x61 <=1 
C1151: x43+x62-y43_62 <=1 
C1152: x43+x64-y43_64 <=1 
C1153: x44+x45-y44_45 <=1 
C1154: x44+x46-y44_46 <=1 
C1155: x44+x47-y44_47 <=1 
C1156: x44+x48 <=1 
C1157: x44+x50-y44_50 <=1 
C1158: x44+x52-y44_52 <=1 
C1159: x44+x53-y44_53 <=1 
C1160: x44+x54-y44_54 <=1 
C1161: x44+x55 <=1 
C1162: x44+x57 <=1 
C1163: x44+x58 <=1 
C1164: x44+x59 <=1 
C1165: x44+x60 <=1 
C1166: x44+x62-y44_62 <=1 
C1167: x44+x63 <=1 
C1168: x44+x64 <=1 
C1169: x45+x47 <=1 
C1170: x45+x48 <=1 
C1171: x45+x49 <=1 
C1172: x45+x50-y45_50 <=1 
C1173: x45+x51 <=1 
C1174: x45+x52 <=1 
C1175: x45+x53-y45_53 <=1 
C1176: x45+x55-y45_55 <=1 
C1177: x45+x57 <=1 
C1178: x45+x64 <=1 
C1179: x46+x47-y46_47 <=1 
C1180: x46+x48 <=1 
C1181: x46+x50-y46_50 <=1 
C1182: x46+x51-y46_51 <=1 
C1183: x46+x53-y46_53 <=1 
C1184: x46+x54 <=1 
C1185: x46+x55-y46_55 <=1 
C1186: x46+x60-y46_60 <=1 
C1187: x46+x62 <=1 
C1188: x46+x64 <=1 
C1189: x47+x48-y47_48 <=1 
C1190: x47+x50 <=1 
C1191: x47+x51-y47_51 <=1 
C1192: x47+x53-y47_53 <=1 
C1193: x47+x55 <=1 
C1194: x47+x56 <=1 
C1195: x47+x57 <=1 
C1196: x47+x58-y47_58 <=1 
C1197: x47+x63-y47_63 <=1 
C1198: x48+x49-y48_49 <=1 
C1199: x48+x51 <=1 
C1200: x48+x54-y48_54 <=1 
C1201: x48+x56 <=1 
C1202: x48+x59-y48_59 <=1 
C1203: x48+x62-y48_62 <=1 
C1204: x48+x64 <=1 
C1205: x49+x50 <=1 
C1206: x49+x51-y49_51 <=1 
C1207: x49+x52 <=1 
C1208: x49+x53 <=1 
C1209: x49+x54-y49_54 <=1 
C1210: x49+x55 <=1 
C1211: x49+x57-y49_57 <=1 
C1212: x49+x62 <=1 
C1213: x50+x51 <=1 
C1214: x50+x52-y50_52 <=1 
C1215: x50+x54 <=1 
C1216: x50+x56-y50_56 <=1 
C1217: x50+x58 <=1 
C1218: x50+x61 <=1 
C1219: x50+x62 <=1 
C1220: x50+x63 <=1 
C1221: x51+x53 <=1 
C1222: x51+x55 <=1 
C1223: x51+x56-y51_56 <=1 
C1224: x51+x60 <=1 
C1225: x51+x61-y51_61 <=1 
C1226: x51+x63 <=1 
C1227: x51+x64-y51_64 <=1 
C1228: x52+x54 <=1 
C1229: x52+x55-y52_55 <=1 
C1230: x52+x56 <=1 
C1231: x52+x58-y52_58 <=1 
C1232: x52+x59-y52_59 <=1 
C1233: x52+x63 <=1 
C1234: x52+x64 <=1 
C1235: x53+x55-y53_55 <=1 
C1236: x53+x56-y53_56 <=1 
C1237: x53+x58-y53_58 <=1 
C1238: x53+x60 <=1 
C1239: x53+x61-y53_61 <=1 
C1240: x53+x62 <=1 
C1241: x54+x55 <=1 
C1242: x54+x57-y54_57 <=1 
C1243: x54+x58 <=1 
C1244: x54+x59 <=1 
C1245: x54+x62 <=1 
C1246: x54+x63 <=1 
C1247: x54+x64-y54_64 <=1 
C1248: x55+x59-y55_59 <=1 
C1249: x55+x64-y55_64 <=1 
C1250: x56+x57 <=1 
C1251: x56+x59 <=1 
C1252: x56+x63 <=1 
C1253: x56+x64 <=1 
C1254: x57+x59-y57_59 <=1 
C1255: x57+x60-y57_60 <=1 
C1256: x57+x61-y57_61 <=1 
C1257: x57+x63-y57_63 <=1 
C1258: x57+x64-y57_64 <=1 
C1259: x58+x60 <=1 
C1260: x58+x61-y58_61 <=1 
C1261: x58+x64 <=1 
C1262: x59+x62-y59_62 <=1 
C1263: x59+x63 <=1 
C1264: x59+x64 <=1 
C1265: x60+x61-y60_61 <=1 
C1266: x61+x62 <=1 
C1267: x61+x63-y61_63 <=1 
C1268: x62+x63 <=1 
C1269: x62+x64 <=1 
C1270: x63+x64-y63_64 <=1 

binary
x0
x1
x2
x3
x4
x5
x6
x7
x8
x9
x10
x11
x12
x13
x14
x15
x16
x17
x18
x19
x20
x21
x22
x23
x24
x25
x26
x27
x28
x29
x30
x31
x32
x33
x34
x35
x36
x37
x38
x39
x40
x41
x42
x43
x44
x45
x46
x47
x48
x49
x50
x51
x52
x53
x54
x55
x56
x57
x58
x59
x60
x61
x62
x63
x64
